105 300 206 232 232 238 218 213 248 223 213 227 220 227 201 246 235 202 204 250 247 204 218 240 249 221 245 230 221 232 221 220 205 201 227 211 239 245 224 236 243 212 237 237 239 239 232 248 215 210 222 236 240 240 226 238 210 220 243 205 202 238 225 232 240 226 243 202 246 242 239 238 203 250 224 216 238 230 239 227 214 210 213 203 250 213 216 234 207 233 239 234 220 238 240 234 214 233 237 234 249 250 246 226 249 219 242 